70
1 0 3
2 1 1
3 1 4
4 0 2
4 2 3
5 1 2
6 0 3
6 2 4
6 3 4
7 0 1
7 1 2
7 2 3
7 6 4
8 2 1
8 5 3
8 7 1
9 2 3
9 3 2
10 0 2
10 2 3
10 5 3
10 6 2
10 7 3
11 0 3
11 1 4
11 4 2
11 5 4
11 8 1
11 10 3
12 1 2
12 2 1
12 3 1
12 4 3
12 7 1
13 1 1
13 2 1
13 3 3
13 5 4
13 6 1
13 9 2
13 11 1
14 0 4
14 2 4
14 8 1
14 9 1
14 10 3
14 12 3
15 1 4
15 3 2
15 4 1
15 5 2
15 9 3
15 10 3
15 11 4
15 12 3
15 14 1
16 0 1
16 1 2
16 3 4
16 5 3
16 6 1
16 7 2
16 8 2
16 9 2
16 10 3
16 11 4
16 13 4
17 0 1
17 1 4
17 3 4
17 4 3
17 6 3
17 10 4
17 12 4
17 13 4
18 1 1
18 2 1
18 3 2
18 4 1
18 5 3
18 8 2
18 9 2
18 11 2
18 12 1
18 13 1
18 14 2
18 15 3
18 17 4
19 1 4
19 6 1
19 7 4
19 8 3
19 9 4
19 11 2
19 12 3
19 13 2
19 14 3
19 15 3
19 18 3
20 0 3
20 2 3
20 3 4
20 4 2
20 5 3
20 6 1
20 7 2
20 9 2
20 11 4
20 12 3
20 15 2
20 16 4
20 17 1
21 0 2
21 3 3
21 4 1
21 5 4
21 6 2
21 7 3
21 12 2
21 13 3
21 14 4
21 16 3
21 17 2
21 18 3
21 19 1
22 2 4
22 3 4
22 4 1
22 9 1
22 10 3
22 13 3
22 14 1
22 16 2
22 17 1
22 18 2
23 0 4
23 4 4
23 6 4
23 11 1
23 18 4
23 19 4
23 20 4
23 21 4
24 0 1
24 2 3
24 7 1
24 10 3
24 11 3
24 12 2
24 13 1
24 14 1
24 15 2
24 17 3
24 19 1
24 22 3
24 23 2
25 0 4
25 3 3
25 4 3
25 5 4
25 6 3
25 9 4
25 10 3
25 12 1
25 13 3
25 19 2
26 1 1
26 4 2
26 5 4
26 6 1
26 9 2
26 11 2
26 13 2
26 18 4
26 19 1
26 20 4
26 22 2
26 23 3
26 24 3
26 25 1
27 0 3
27 1 4
27 4 1
27 8 1
27 10 2
27 11 4
27 14 2
27 18 3
27 20 1
27 24 1
28 2 3
28 3 4
28 6 1
28 7 1
28 8 1
28 10 3
28 12 1
28 14 2
28 15 2
28 16 1
28 19 3
28 24 4
28 27 2
29 2 4
29 3 4
29 4 2
29 6 3
29 11 1
29 12 4
29 15 4
29 16 2
29 17 2
29 18 3
29 19 4
29 24 4
29 26 4
30 1 4
30 2 3
30 5 3
30 8 3
30 9 2
30 12 2
30 15 2
30 18 2
30 21 2
30 22 3
30 24 4
30 26 2
30 27 2
30 29 4
31 0 4
31 2 2
31 3 4
31 4 4
31 5 4
31 9 1
31 11 3
31 16 4
31 18 4
31 19 1
31 21 1
31 22 1
31 23 4
31 25 3
31 27 1
32 3 3
32 5 2
32 7 3
32 8 3
32 9 1
32 10 3
32 11 4
32 12 1
32 13 3
32 14 2
32 15 1
32 16 3
32 17 2
32 18 2
32 22 2
32 24 4
32 25 2
32 26 1
32 27 2
32 28 1
32 29 1
32 30 2
33 0 3
33 3 3
33 10 4
33 11 3
33 13 1
33 14 3
33 15 4
33 18 3
33 19 2
33 20 3
33 22 3
33 23 1
33 26 4
33 27 2
33 29 3
34 2 1
34 5 2
34 10 3
34 11 4
34 12 3
34 15 3
34 17 4
34 19 1
34 22 1
34 23 4
34 25 3
34 26 3
34 27 1
34 30 1
34 32 4
35 0 1
35 1 2
35 2 4
35 5 1
35 7 1
35 11 3
35 14 2
35 16 1
35 17 4
35 19 1
35 20 3
35 21 2
35 23 4
35 24 1
35 27 3
35 28 4
35 30 4
35 31 4
35 34 3
36 0 4
36 1 1
36 3 2
36 4 3
36 6 1
36 7 3
36 8 4
36 9 3
36 10 3
36 13 1
36 17 3
36 18 2
36 19 3
36 20 1
36 25 2
36 31 4
36 33 3
36 34 2
36 35 4
37 2 2
37 3 1
37 4 2
37 6 3
37 7 1
37 9 4
37 10 4
37 11 2
37 12 2
37 16 1
37 19 1
37 24 2
37 27 4
37 28 3
37 30 2
37 32 4
38 6 2
38 7 1
38 8 2
38 14 3
38 16 3
38 17 1
38 18 2
38 20 4
38 22 1
38 28 4
38 29 3
38 31 2
38 32 2
38 33 2
38 35 4
38 36 1
39 2 1
39 3 2
39 6 2
39 7 4
39 10 4
39 11 1
39 12 3
39 16 4
39 17 2
39 18 3
39 21 2
39 22 3
39 23 3
39 26 1
39 29 2
39 30 2
39 32 1
39 33 3
39 35 4
39 37 1
39 38 3
40 0 1
40 3 1
40 4 4
40 6 3
40 9 4
40 10 2
40 11 1
40 12 3
40 13 2
40 14 1
40 17 1
40 18 3
40 20 2
40 21 3
40 22 3
40 23 1
40 24 4
40 30 1
40 33 3
40 36 3
40 39 2
41 2 3
41 5 1
41 7 1
41 9 3
41 10 4
41 11 4
41 13 1
41 15 2
41 16 1
41 17 2
41 18 2
41 21 2
41 23 2
41 27 3
41 28 3
41 31 1
41 35 1
41 36 3
41 37 1
41 38 4
42 0 1
42 2 3
42 5 3
42 7 1
42 10 1
42 12 4
42 13 2
42 15 1
42 17 4
42 18 1
42 19 4
42 22 3
42 23 1
42 26 4
42 27 3
42 33 3
42 34 4
42 35 1
42 36 3
43 2 2
43 3 4
43 4 2
43 6 2
43 7 1
43 9 3
43 10 2
43 11 1
43 12 4
43 14 2
43 18 4
43 19 1
43 24 4
43 25 1
43 26 2
43 27 2
43 29 1
43 34 3
43 35 1
43 36 4
43 39 1
43 41 2
44 1 4
44 3 3
44 4 3
44 5 1
44 6 2
44 7 3
44 8 3
44 12 1
44 15 3
44 19 2
44 23 4
44 24 2
44 25 3
44 26 2
44 27 2
44 28 2
44 30 4
44 31 2
44 33 2
44 34 3
44 35 2
44 41 4
44 42 2
44 43 1
45 1 4
45 2 3
45 7 3
45 8 4
45 9 2
45 11 2
45 12 4
45 17 4
45 18 1
45 19 3
45 21 1
45 22 3
45 27 3
45 30 3
45 31 3
45 32 1
45 36 3
45 37 2
45 38 1
45 41 4
45 44 3
46 0 3
46 1 1
46 2 2
46 4 4
46 5 1
46 6 3
46 8 4
46 11 4
46 15 4
46 16 1
46 17 4
46 18 4
46 21 1
46 22 2
46 26 1
46 27 1
46 29 3
46 31 1
46 35 2
46 37 2
46 39 2
46 40 1
46 42 4
46 45 4
47 0 2
47 1 3
47 3 1
47 5 1
47 6 3
47 8 4
47 9 2
47 11 3
47 15 3
47 17 1
47 18 4
47 19 2
47 23 4
47 24 3
47 27 3
47 28 1
47 30 2
47 32 4
47 33 3
47 35 4
47 36 1
47 37 1
47 38 1
47 42 1
47 46 1
48 2 2
48 3 2
48 5 2
48 6 2
48 8 1
48 9 1
48 12 4
48 15 4
48 16 1
48 18 4
48 21 1
48 23 4
48 24 2
48 27 3
48 31 1
48 34 1
48 35 4
48 42 3
48 43 3
48 45 4
48 46 2
48 47 1
49 0 1
49 1 4
49 2 3
49 3 1
49 4 3
49 9 4
49 10 1
49 12 2
49 13 4
49 15 1
49 17 2
49 18 2
49 19 1
49 23 4
49 25 1
49 26 3
49 30 1
49 33 4
49 36 2
49 37 4
49 38 2
49 40 1
49 42 3
49 44 3
49 45 4
49 46 4
50 4 3
50 5 1
50 8 4
50 9 2
50 11 2
50 13 4
50 18 4
50 20 1
50 25 3
50 27 1
50 28 4
50 29 2
50 30 2
50 31 3
50 33 1
50 34 2
50 37 2
50 39 2
50 41 1
50 42 4
50 44 1
50 49 2
51 0 2
51 1 4
51 3 3
51 7 3
51 10 1
51 12 4
51 13 4
51 15 1
51 16 4
51 17 2
51 20 4
51 22 1
51 23 4
51 25 4
51 26 3
51 29 1
51 31 4
51 32 3
51 33 4
51 34 1
51 38 1
51 41 3
51 43 3
51 47 4
51 48 1
52 0 4
52 3 4
52 10 1
52 15 2
52 16 4
52 17 2
52 18 2
52 19 4
52 20 4
52 21 4
52 22 4
52 24 2
52 25 4
52 28 3
52 31 4
52 32 3
52 33 1
52 36 4
52 37 1
52 38 2
52 39 1
52 40 3
52 41 1
52 43 3
52 45 1
52 47 2
52 49 2
52 50 4
53 0 4
53 5 2
53 6 4
53 7 2
53 8 1
53 9 1
53 11 1
53 14 2
53 17 2
53 19 3
53 20 3
53 23 1
53 25 2
53 26 1
53 35 2
53 36 2
53 38 1
53 39 2
53 40 1
53 42 1
53 43 4
53 45 3
53 47 4
53 48 2
54 0 3
54 1 4
54 2 1
54 3 3
54 4 4
54 5 1
54 7 3
54 10 3
54 11 4
54 12 2
54 13 1
54 16 4
54 22 3
54 25 4
54 26 2
54 29 3
54 32 4
54 38 4
54 39 4
54 43 2
54 45 1
54 46 4
54 48 4
54 51 2
54 52 2
55 0 3
55 1 2
55 2 4
55 3 2
55 6 3
55 7 2
55 8 3
55 9 2
55 14 1
55 15 3
55 18 2
55 19 1
55 20 4
55 22 2
55 23 1
55 26 1
55 27 1
55 28 1
55 29 3
55 35 1
55 36 4
55 37 1
55 38 2
55 40 3
55 43 3
55 44 3
55 46 2
55 47 4
55 49 2
55 51 2
55 53 3
56 0 2
56 1 2
56 5 4
56 6 2
56 8 4
56 11 1
56 15 2
56 16 2
56 19 1
56 20 1
56 21 4
56 22 4
56 23 4
56 25 3
56 31 3
56 32 3
56 33 4
56 40 1
56 42 1
56 46 3
56 51 4
56 52 2
56 54 2
56 55 4
57 1 4
57 2 3
57 3 3
57 4 1
57 9 1
57 11 4
57 12 3
57 13 1
57 14 2
57 15 2
57 20 2
57 21 1
57 22 3
57 23 4
57 25 1
57 27 3
57 28 1
57 31 4
57 32 3
57 33 2
57 34 3
57 38 3
57 40 4
57 42 2
57 43 1
57 44 4
57 45 4
57 47 1
57 51 3
57 52 3
57 53 1
57 56 3
58 0 1
58 2 4
58 4 3
58 5 4
58 7 4
58 8 4
58 12 4
58 15 4
58 16 3
58 20 4
58 21 4
58 24 4
58 26 2
58 27 2
58 29 3
58 30 1
58 31 3
58 32 1
58 34 1
58 35 3
58 36 3
58 37 1
58 38 1
58 40 2
58 41 2
58 42 3
58 43 2
58 44 4
58 45 3
58 46 3
58 47 4
58 48 2
58 49 2
58 50 1
58 53 3
58 57 1
59 0 3
59 2 2
59 5 3
59 14 1
59 15 3
59 17 3
59 18 2
59 21 2
59 22 2
59 24 3
59 25 3
59 26 1
59 27 3
59 28 4
59 29 4
59 31 3
59 32 3
59 33 2
59 34 3
59 35 3
59 40 3
59 41 3
59 42 3
59 46 1
59 47 3
59 48 3
59 53 4
60 4 1
60 6 1
60 7 1
60 9 3
60 18 2
60 19 4
60 20 4
60 21 2
60 23 3
60 24 2
60 25 4
60 26 4
60 29 4
60 31 1
60 34 2
60 35 4
60 36 2
60 38 4
60 46 4
60 48 2
60 49 3
60 51 3
60 55 4
60 56 1
60 57 1
61 0 2
61 4 1
61 8 2
61 9 4
61 10 2
61 11 3
61 12 3
61 14 2
61 15 4
61 17 2
61 18 3
61 20 4
61 21 1
61 24 2
61 25 1
61 28 3
61 29 3
61 30 2
61 33 2
61 35 2
61 40 1
61 43 1
61 44 3
61 47 2
61 48 1
61 49 3
61 50 2
62 2 1
62 3 3
62 7 4
62 10 1
62 11 1
62 13 1
62 15 4
62 17 3
62 18 1
62 21 1
62 26 2
62 30 1
62 31 2
62 32 2
62 34 3
62 38 2
62 39 2
62 40 2
62 43 4
62 45 1
62 46 1
62 47 2
62 52 3
62 54 1
62 61 2
63 0 4
63 2 3
63 3 1
63 5 2
63 7 4
63 12 1
63 13 1
63 15 4
63 16 1
63 17 3
63 20 1
63 25 1
63 26 2
63 31 1
63 33 3
63 36 4
63 39 2
63 40 2
63 41 3
63 42 1
63 45 4
63 46 1
63 47 4
63 51 3
63 52 1
63 54 3
63 56 2
63 62 1
64 0 3
64 1 3
64 6 4
64 10 1
64 11 2
64 12 1
64 14 2
64 16 2
64 19 1
64 20 1
64 26 4
64 27 4
64 30 4
64 32 4
64 33 3
64 35 2
64 37 3
64 38 1
64 39 4
64 42 2
64 43 1
64 45 4
64 48 3
64 49 3
64 50 1
64 51 1
64 53 1
64 56 3
64 58 1
64 61 4
64 63 1
65 0 1
65 1 2
65 2 1
65 3 3
65 5 3
65 7 2
65 8 1
65 9 4
65 13 4
65 14 1
65 15 1
65 17 3
65 18 4
65 21 1
65 22 1
65 24 1
65 26 2
65 28 4
65 29 2
65 31 4
65 34 4
65 35 3
65 36 1
65 37 3
65 38 3
65 39 3
65 41 4
65 43 1
65 47 1
65 49 3
65 52 2
65 57 2
65 58 2
65 59 4
65 60 2
65 62 3
65 64 4
66 1 1
66 4 1
66 5 4
66 8 3
66 9 2
66 14 3
66 15 2
66 16 1
66 20 2
66 23 3
66 25 3
66 28 1
66 29 2
66 30 1
66 31 4
66 33 1
66 34 2
66 39 4
66 40 2
66 45 2
66 48 4
66 49 1
66 50 1
66 53 3
66 54 3
66 55 4
66 58 2
66 59 4
66 63 2
66 64 1
67 1 1
67 11 2
67 12 2
67 13 2
67 15 1
67 16 1
67 23 4
67 26 4
67 28 2
67 30 1
67 32 2
67 33 1
67 35 1
67 36 3
67 43 1
67 44 3
67 47 4
67 48 4
67 51 4
67 52 3
67 56 1
67 57 3
67 58 1
67 59 4
67 60 4
67 62 3
67 65 4
68 0 1
68 2 1
68 3 3
68 7 4
68 8 4
68 10 3
68 11 4
68 13 4
68 14 4
68 15 2
68 20 3
68 21 2
68 22 3
68 25 4
68 26 2
68 27 4
68 28 1
68 30 3
68 31 2
68 32 4
68 33 2
68 34 1
68 35 4
68 39 3
68 40 2
68 41 1
68 43 4
68 46 3
68 51 4
68 58 3
68 59 3
68 62 3
68 63 2
68 65 1
68 66 3
69 0 1
69 3 2
69 4 1
69 8 3
69 10 2
69 11 1
69 12 2
69 18 3
69 20 1
69 23 4
69 24 1
69 27 4
69 28 2
69 29 1
69 30 3
69 31 1
69 37 4
69 39 3
69 42 2
69 43 1
69 44 1
69 49 3
69 51 1
69 55 2
69 56 4
69 57 1
69 58 1
69 59 1
69 60 4
69 62 3
69 64 2
69 65 2
